(set-logic QF_FPABV)
(declare-fun b114 () (_ FP 11 53))
(declare-fun b585 () (_ FP 11 53))
(declare-fun b310 () (_ FP 11 53))
(declare-fun b136 () (_ FP 11 53))
(declare-fun b102 () (_ FP 11 53))
(declare-fun b558 () (_ FP 11 53))
(declare-fun b547 () (_ FP 11 53))
(declare-fun b148 () (_ FP 11 53))
(declare-fun b623 () (_ FP 11 53))
(declare-fun b596 () (_ FP 11 53))
(declare-fun b634 () (_ FP 11 53))
(declare-fun b145 () (_ FP 11 53))
(define-fun .3 () RoundingMode roundNearestTiesToEven)
(define-fun .9 () (_ FP 11 53) b310)
(define-fun .10 () (_ FP 11 53) b145)
(define-fun .11 () (_ FP 11 53) (/ .3 .9 .10))
(define-fun .12 () (_ FP 11 53) b136)
(define-fun .13 () (_ FP 11 53) (* .3 .11 .12))
(define-fun .14 () (_ FP 11 53) (* .3 .11 .11))
(define-fun .15 () (_ FP 11 53) (- .14))
(define-fun .16 () (_ FP 11 53) (+ .3 .9 .15))
(define-fun .17 () (_ FP 11 53) (/ .3 .16 .13))
(define-fun .18 () (_ FP 11 53) (+ .3 .11 .17))
(define-fun .19 () (_ FP 11 53) (* .3 .12 .18))
(define-fun .20 () (_ FP 11 53) (* .3 .18 .18))
(define-fun .21 () (_ FP 11 53) (- .20))
(define-fun .22 () (_ FP 11 53) (+ .3 .9 .21))
(define-fun .23 () (_ FP 11 53) (/ .3 .22 .19))
(define-fun .24 () (_ FP 11 53) (+ .3 .18 .23))
(define-fun .25 () (_ FP 11 53) (* .3 .24 .24))
(define-fun .26 () (_ FP 11 53) (- .25))
(define-fun .27 () (_ FP 11 53) (+ .3 .9 .26))
(define-fun .28 () (_ FP 11 53) b547)
(define-fun .29 () Bool (= .27 .28))
(define-fun .30 () Bool (not .29))
(define-fun .31 () (_ FP 11 53) b558)
(define-fun .32 () Bool (= .22 .31))
(define-fun .33 () Bool (not .32))
(define-fun .34 () (_ FP 11 53) b102)
(define-fun .35 () (_ FP 11 53) (/ .3 .34 .10))
(define-fun .36 () (_ FP 11 53) (* .3 .12 .35))
(define-fun .37 () (_ FP 11 53) (* .3 .35 .35))
(define-fun .38 () (_ FP 11 53) (- .37))
(define-fun .39 () (_ FP 11 53) (+ .3 .34 .38))
(define-fun .40 () (_ FP 11 53) (/ .3 .39 .36))
(define-fun .41 () (_ FP 11 53) (+ .3 .35 .40))
(define-fun .42 () (_ FP 11 53) (* .3 .12 .41))
(define-fun .43 () (_ FP 11 53) (* .3 .41 .41))
(define-fun .44 () (_ FP 11 53) (- .43))
(define-fun .45 () (_ FP 11 53) (+ .3 .34 .44))
(define-fun .46 () (_ FP 11 53) (/ .3 .45 .42))
(define-fun .47 () (_ FP 11 53) (+ .3 .41 .46))
(define-fun .48 () (_ FP 11 53) (* .3 .47 .47))
(define-fun .49 () (_ FP 11 53) (- .48))
(define-fun .50 () (_ FP 11 53) (+ .3 .34 .49))
(define-fun .51 () (_ FP 11 53) b585)
(define-fun .52 () Bool (= .50 .51))
(define-fun .53 () Bool (not .52))
(define-fun .54 () (_ FP 11 53) b596)
(define-fun .55 () Bool (= .45 .54))
(define-fun .56 () Bool (not .55))
(define-fun .57 () (_ FP 11 53) b114)
(define-fun .58 () (_ FP 11 53) (/ .3 .57 .10))
(define-fun .59 () (_ FP 11 53) (* .3 .12 .58))
(define-fun .60 () (_ FP 11 53) (* .3 .58 .58))
(define-fun .61 () (_ FP 11 53) (- .60))
(define-fun .62 () (_ FP 11 53) (+ .3 .57 .61))
(define-fun .63 () (_ FP 11 53) (/ .3 .62 .59))
(define-fun .64 () (_ FP 11 53) (+ .3 .58 .63))
(define-fun .65 () (_ FP 11 53) (* .3 .12 .64))
(define-fun .66 () (_ FP 11 53) (* .3 .64 .64))
(define-fun .67 () (_ FP 11 53) (- .66))
(define-fun .68 () (_ FP 11 53) (+ .3 .57 .67))
(define-fun .69 () (_ FP 11 53) (/ .3 .68 .65))
(define-fun .70 () (_ FP 11 53) (+ .3 .64 .69))
(define-fun .71 () (_ FP 11 53) (* .3 .70 .70))
(define-fun .72 () (_ FP 11 53) (- .71))
(define-fun .73 () (_ FP 11 53) (+ .3 .57 .72))
(define-fun .74 () (_ FP 11 53) b623)
(define-fun .75 () Bool (= .73 .74))
(define-fun .76 () Bool (not .75))
(define-fun .77 () (_ FP 11 53) b634)
(define-fun .78 () Bool (= .68 .77))
(define-fun .79 () Bool (not .78))
(define-fun .80 () Bool (== .34 .34))
(define-fun .81 () Bool (not .80))
(define-fun .82 () Bool (== .34 .57))
(define-fun .83 () Bool (not .82))
(define-fun .84 () Bool (and .81 .83))
(define-fun .85 () Bool (== .9 .34))
(define-fun .86 () Bool (not .85))
(define-fun .87 () Bool (and .84 .86))
(define-fun .88 () Bool (<= .34 .68))
(define-fun .89 () Bool (not .88))
(define-fun .90 () Bool (and .87 .89))
(define-fun .91 () (_ FP 11 53) (- .68))
(define-fun .92 () Bool (= .77 .91))
(define-fun .93 () Bool (and .90 .92))
(define-fun .94 () Bool (and .79 .93))
(define-fun .95 () (_ FP 11 53) b148)
(define-fun .96 () Bool (<= .77 .95))
(define-fun .97 () Bool (not .96))
(define-fun .98 () Bool (and .94 .97))
(define-fun .99 () Bool (<= .34 .73))
(define-fun .100 () Bool (not .99))
(define-fun .101 () Bool (and .98 .100))
(define-fun .102 () (_ FP 11 53) (- .73))
(define-fun .103 () Bool (= .74 .102))
(define-fun .104 () Bool (and .101 .103))
(define-fun .105 () Bool (and .76 .104))
(define-fun .106 () Bool (<= .34 .45))
(define-fun .107 () Bool (not .106))
(define-fun .108 () Bool (and .105 .107))
(define-fun .109 () (_ FP 11 53) (- .45))
(define-fun .110 () Bool (= .54 .109))
(define-fun .111 () Bool (and .108 .110))
(define-fun .112 () Bool (and .56 .111))
(define-fun .113 () Bool (<= .54 .95))
(define-fun .114 () Bool (not .113))
(define-fun .115 () Bool (and .112 .114))
(define-fun .116 () Bool (<= .34 .50))
(define-fun .117 () Bool (not .116))
(define-fun .118 () Bool (and .115 .117))
(define-fun .119 () (_ FP 11 53) (- .50))
(define-fun .120 () Bool (= .51 .119))
(define-fun .121 () Bool (and .118 .120))
(define-fun .122 () Bool (and .53 .121))
(define-fun .123 () Bool (<= .34 .22))
(define-fun .124 () Bool (not .123))
(define-fun .125 () Bool (and .122 .124))
(define-fun .126 () (_ FP 11 53) (- .22))
(define-fun .127 () Bool (= .31 .126))
(define-fun .128 () Bool (and .125 .127))
(define-fun .129 () Bool (and .33 .128))
(define-fun .130 () Bool (<= .31 .95))
(define-fun .131 () Bool (not .130))
(define-fun .132 () Bool (and .129 .131))
(define-fun .133 () Bool (<= .34 .27))
(define-fun .134 () Bool (not .133))
(define-fun .135 () Bool (and .132 .134))
(define-fun .136 () (_ FP 11 53) (- .27))
(define-fun .137 () Bool (= .28 .136))
(define-fun .138 () Bool (and .135 .137))
(define-fun .139 () Bool (and .30 .138))
(assert .139)
(check-sat)
